NAME: TEST
TYPE: AGTSP
COMMENT: NA
DIMENSION:  23
GTSP_SETS: 12
EDGE_WEIGHT_TYPE: EXPLICIT
EDGE_WEIGHT_FORMAT: FULL_MATRIX
EDGE_WEIGHT_SECTION
999999 44 999999 999999 999999 999999 999999 999999 999999 999999 999999 999999 999999 999999 999999 999999 999999 999999 999999 999999 999999 999999 22 
74 999999 37 37 74 74 111 111 148 148 186 999999 999999 59 74 999999 111 999999 148 999999 186 999999 37 
999999 999999 999999 44 999999 999999 999999 999999 999999 999999 999999 999999 44 999999 999999 999999 999999 999999 999999 999999 999999 999999 22 
111 111 74 999999 37 37 74 74 111 111 149 999999 74 999999 999999 59 74 999999 111 999999 149 999999 37 
999999 999999 999999 999999 999999 44 999999 999999 999999 999999 999999 999999 999999 999999 44 999999 999999 999999 999999 999999 999999 999999 22 
148 148 111 111 74 999999 37 37 74 74 112 999999 111 999999 74 999999 999999 59 74 999999 112 999999 37 
999999 999999 999999 999999 999999 999999 999999 44 999999 999999 999999 999999 999999 999999 999999 999999 44 999999 999999 999999 999999 999999 22 
185 185 148 148 111 111 74 999999 37 37 75 999999 148 999999 111 999999 74 999999 999999 59 75 999999 37 
999999 999999 999999 999999 999999 999999 999999 999999 999999 44 999999 999999 999999 999999 999999 999999 999999 999999 44 999999 999999 999999 22 
224 224 187 187 150 150 113 113 76 999999 38 999999 187 999999 150 999999 113 999999 76 999999 999999 60 38 
999999 999999 999999 999999 999999 999999 999999 999999 999999 999999 999999 999999 999999 999999 999999 999999 999999 999999 999999 999999 44 999999 22 
999999 22 59 59 96 96 133 133 170 170 208 999999 59 999999 96 999999 133 999999 170 999999 208 999999 22 
37 999999 74 74 111 111 148 148 185 185 223 59 999999 999999 111 999999 148 999999 185 999999 223 999999 37 
59 59 999999 22 59 59 96 96 133 133 171 999999 22 999999 59 999999 96 999999 133 999999 171 999999 22 
74 74 37 999999 74 74 111 111 148 148 186 999999 37 59 999999 999999 111 999999 148 999999 186 999999 37 
96 96 59 59 999999 22 59 59 96 96 134 999999 59 999999 22 999999 59 999999 96 999999 134 999999 22 
111 111 74 74 37 999999 74 74 111 111 149 999999 74 999999 37 59 999999 999999 111 999999 149 999999 37 
133 133 96 96 59 59 999999 22 59 59 97 999999 96 999999 59 999999 22 999999 59 999999 97 999999 22 
148 148 111 111 74 74 37 999999 74 74 112 999999 111 999999 74 999999 37 59 999999 999999 112 999999 37 
170 170 133 133 96 96 59 59 999999 22 60 999999 133 999999 96 999999 59 999999 22 999999 60 999999 22 
186 186 149 149 112 112 75 75 38 999999 76 999999 149 999999 112 999999 75 999999 38 60 999999 999999 38 
208 208 171 171 134 134 97 97 60 60 999999 999999 171 999999 134 999999 97 999999 60 999999 22 999999 22 
999999 999999 999999 999999 999999 999999 999999 999999 999999 999999 999999 999999 999999 999999 999999 999999 999999 999999 999999 999999 999999 999999 999999 
GTSP_SET_SECTION:
1 1 12 -1
2 2 13 -1
3 3 14 -1
4 4 15 -1
5 5 16 -1
6 6 17 -1
7 7 18 -1
8 8 19 -1
9 9 20 -1
10 10 21 -1
11 11 22 -1
12 23 -1
EOF